NAME : single
TYPE : ATSP
DIMENSION : 10
EDGE_WEIGHT_TYPE : EXPLICIT
EDGE_WEIGHT_FORMAT : FULL_MATRIX
EDGE_WEIGHT_SECTION
0 135 298 435 72 259 327 322 295 245 
0 0 119 130 140 123 263 190 161 294 
0 119 0 54 75 243 236 273 242 186 
0 130 54 0 88 253 222 276 242 182 
0 140 75 88 0 264 196 198 166 165 
0 123 243 253 264 0 152 195 281 170 
0 263 236 222 196 152 0 264 178 236 
0 190 273 276 198 195 264 0 85 233 
0 161 242 242 166 281 178 85 0 204 
0 294 186 182 165 170 236 233 204 0 
EOF